(set-info :smt-lib-version 2.6)
(set-logic UFLRA)
; Problem:
; 
;     lim(f_1 x) = l_1
;     ...
;     lim(f_n x) = l_n
;     =================
;     lim(k_1 f_{i_1}(x) + ... + k_m f_{i_m}(x)) = k1 l_{i_1} ... k_m  l_{i_m}
; 
; with n = 8
;      m = 64
;      k_i in Q
;      i_j in {1..n}

(declare-fun f0 (Real) Real)
(declare-fun f1 (Real) Real)
(declare-fun f2 (Real) Real)
(declare-fun f3 (Real) Real)
(declare-fun f4 (Real) Real)
(declare-fun f5 (Real) Real)
(declare-fun f6 (Real) Real)
(declare-fun f7 (Real) Real)
(declare-const l0 Real)
(declare-const l1 Real)
(declare-const l2 Real)
(declare-const l3 Real)
(declare-const l4 Real)
(declare-const l5 Real)
(declare-const l6 Real)
(declare-const l7 Real)
(declare-const a Real)
; Axiom 0
(assert ; lim[x -> a](f0 x) = l0
        ;
        ; forall epsilon > 0
        (forall ((epsilon Real)) (=> (< 0.0 epsilon)
          ;
          ; exists delta > 0
          (exists ( (delta Real) ) (and (< 0.0 delta)
            (forall ((x Real)) (=> ;
                                          ; a != x
                                     (and (not (= x a))
                                          ; | x - a | < delta
                                          (< (ite (>= (- x a) 0.0) (- x a) (- (- x a))) delta))
                                     ;
                                     ; | (f0 x) - l0 | < epsilon
                                     (< (ite (>= (- (f0 x) l0) 0.0) (- (f0 x) l0) (- (- (f0 x) l0))) epsilon)
            ))
          ))
        )))

; Axiom 1
(assert ; lim[x -> a](f1 x) = l1
        ;
        ; forall epsilon > 0
        (forall ((epsilon Real)) (=> (< 0.0 epsilon)
          ;
          ; exists delta > 0
          (exists ( (delta Real) ) (and (< 0.0 delta)
            (forall ((x Real)) (=> ;
                                          ; a != x
                                     (and (not (= x a))
                                          ; | x - a | < delta
                                          (< (ite (>= (- x a) 0.0) (- x a) (- (- x a))) delta))
                                     ;
                                     ; | (f1 x) - l1 | < epsilon
                                     (< (ite (>= (- (f1 x) l1) 0.0) (- (f1 x) l1) (- (- (f1 x) l1))) epsilon)
            ))
          ))
        )))

; Axiom 2
(assert ; lim[x -> a](f2 x) = l2
        ;
        ; forall epsilon > 0
        (forall ((epsilon Real)) (=> (< 0.0 epsilon)
          ;
          ; exists delta > 0
          (exists ( (delta Real) ) (and (< 0.0 delta)
            (forall ((x Real)) (=> ;
                                          ; a != x
                                     (and (not (= x a))
                                          ; | x - a | < delta
                                          (< (ite (>= (- x a) 0.0) (- x a) (- (- x a))) delta))
                                     ;
                                     ; | (f2 x) - l2 | < epsilon
                                     (< (ite (>= (- (f2 x) l2) 0.0) (- (f2 x) l2) (- (- (f2 x) l2))) epsilon)
            ))
          ))
        )))

; Axiom 3
(assert ; lim[x -> a](f3 x) = l3
        ;
        ; forall epsilon > 0
        (forall ((epsilon Real)) (=> (< 0.0 epsilon)
          ;
          ; exists delta > 0
          (exists ( (delta Real) ) (and (< 0.0 delta)
            (forall ((x Real)) (=> ;
                                          ; a != x
                                     (and (not (= x a))
                                          ; | x - a | < delta
                                          (< (ite (>= (- x a) 0.0) (- x a) (- (- x a))) delta))
                                     ;
                                     ; | (f3 x) - l3 | < epsilon
                                     (< (ite (>= (- (f3 x) l3) 0.0) (- (f3 x) l3) (- (- (f3 x) l3))) epsilon)
            ))
          ))
        )))

; Axiom 4
(assert ; lim[x -> a](f4 x) = l4
        ;
        ; forall epsilon > 0
        (forall ((epsilon Real)) (=> (< 0.0 epsilon)
          ;
          ; exists delta > 0
          (exists ( (delta Real) ) (and (< 0.0 delta)
            (forall ((x Real)) (=> ;
                                          ; a != x
                                     (and (not (= x a))
                                          ; | x - a | < delta
                                          (< (ite (>= (- x a) 0.0) (- x a) (- (- x a))) delta))
                                     ;
                                     ; | (f4 x) - l4 | < epsilon
                                     (< (ite (>= (- (f4 x) l4) 0.0) (- (f4 x) l4) (- (- (f4 x) l4))) epsilon)
            ))
          ))
        )))

; Axiom 5
(assert ; lim[x -> a](f5 x) = l5
        ;
        ; forall epsilon > 0
        (forall ((epsilon Real)) (=> (< 0.0 epsilon)
          ;
          ; exists delta > 0
          (exists ( (delta Real) ) (and (< 0.0 delta)
            (forall ((x Real)) (=> ;
                                          ; a != x
                                     (and (not (= x a))
                                          ; | x - a | < delta
                                          (< (ite (>= (- x a) 0.0) (- x a) (- (- x a))) delta))
                                     ;
                                     ; | (f5 x) - l5 | < epsilon
                                     (< (ite (>= (- (f5 x) l5) 0.0) (- (f5 x) l5) (- (- (f5 x) l5))) epsilon)
            ))
          ))
        )))

; Axiom 6
(assert ; lim[x -> a](f6 x) = l6
        ;
        ; forall epsilon > 0
        (forall ((epsilon Real)) (=> (< 0.0 epsilon)
          ;
          ; exists delta > 0
          (exists ( (delta Real) ) (and (< 0.0 delta)
            (forall ((x Real)) (=> ;
                                          ; a != x
                                     (and (not (= x a))
                                          ; | x - a | < delta
                                          (< (ite (>= (- x a) 0.0) (- x a) (- (- x a))) delta))
                                     ;
                                     ; | (f6 x) - l6 | < epsilon
                                     (< (ite (>= (- (f6 x) l6) 0.0) (- (f6 x) l6) (- (- (f6 x) l6))) epsilon)
            ))
          ))
        )))

; Axiom 7
(assert ; lim[x -> a](f7 x) = l7
        ;
        ; forall epsilon > 0
        (forall ((epsilon Real)) (=> (< 0.0 epsilon)
          ;
          ; exists delta > 0
          (exists ( (delta Real) ) (and (< 0.0 delta)
            (forall ((x Real)) (=> ;
                                          ; a != x
                                     (and (not (= x a))
                                          ; | x - a | < delta
                                          (< (ite (>= (- x a) 0.0) (- x a) (- (- x a))) delta))
                                     ;
                                     ; | (f7 x) - l7 | < epsilon
                                     (< (ite (>= (- (f7 x) l7) 0.0) (- (f7 x) l7) (- (- (f7 x) l7))) epsilon)
            ))
          ))
        )))


; Conclusion
(assert (not ; lim[x -> a](+ (* (/ 77.0 81.0) (f5 x)) (* (/ 62.0 65.0) (f0 x)) (* (- (/ 97.0 18.0)) (f6 x)) (* (/ 79.0 98.0) (f3 x)) (* (- (/ 37.0 10.0)) (f3 x)) (* (/ 81.0 18.0) (f5 x)) (* (/ 55.0 82.0) (f7 x)) (* (/ 42.0 84.0) (f4 x)) (* (/ 59.0 62.0) (f0 x)) (* (/ 63.0 95.0) (f7 x)) (* (/ 77.0 63.0) (f0 x)) (* (- (/ 3.0 98.0)) (f0 x)) (* (/ 72.0 48.0) (f7 x)) (* (/ 75.0 77.0) (f2 x)) (* (/ 30.0 93.0) (f4 x)) (* (/ 23.0 40.0) (f5 x)) (* (- (/ 9.0 95.0)) (f4 x)) (* (/ 29.0 55.0) (f0 x)) (* (- (/ 27.0 95.0)) (f7 x)) (* (- (/ 98.0 10.0)) (f6 x)) (* (/ 43.0 30.0) (f6 x)) (* (/ 13.0 93.0) (f4 x)) (* (- (/ 54.0 42.0)) (f0 x)) (* (- (/ 38.0 3.0)) (f1 x)) (* (- (/ 18.0 71.0)) (f2 x)) (* (- (/ 32.0 13.0)) (f0 x)) (* 33.0 (f6 x)) (* (- (/ 92.0 38.0)) (f3 x)) (* (- (/ 10.0 96.0)) (f5 x)) (* (/ 33.0 66.0) (f6 x)) (* (- (/ 7.0 91.0)) (f2 x)) (* (/ 100.0 43.0) (f1 x)) (* (- (/ 62.0 7.0)) (f3 x)) (* (- (/ 74.0 14.0)) (f7 x)) (* (/ 77.0 25.0) (f1 x)) (* (/ 27.0 42.0) (f2 x)) (* (- (/ 81.0 81.0)) (f0 x)) (* (- (/ 97.0 90.0)) (f5 x)) (* (/ 96.0 7.0) (f7 x)) (* (/ 72.0 41.0) (f2 x)) (* (- (/ 22.0 57.0)) (f0 x)) (* (/ 81.0 8.0) (f5 x)) (* (- (/ 47.0 14.0)) (f7 x)) (* (/ 22.0 51.0) (f0 x)) (* (- (/ 41.0 10.0)) (f3 x)) (* (- (/ 80.0 94.0)) (f0 x)) (* (- (/ 89.0 60.0)) (f6 x)) (* (- (/ 82.0 40.0)) (f5 x)) (* (- (/ 39.0 41.0)) (f0 x)) (* (/ 28.0 42.0) (f4 x)) (* (/ 79.0 44.0) (f4 x)) (* (- (/ 97.0 31.0)) (f5 x)) (* (/ 86.0 92.0) (f0 x)) (* (/ 3.0 11.0) (f1 x)) (* (/ 23.0 43.0) (f7 x)) (* (/ 26.0 12.0) (f0 x)) (* (- (/ 71.0 97.0)) (f4 x)) (* (/ 96.0 36.0) (f7 x)) (* (- 59.0) (f0 x)) (* (- (/ 90.0 17.0)) (f1 x)) (* (/ 3.0 18.0) (f4 x)) (* (- (/ 88.0 83.0)) (f5 x)) (* (/ 64.0 83.0) (f1 x)) (* (- (/ 66.0 66.0)) (f1 x))) = (+ (* (/ 77.0 81.0) l5) (* (/ 62.0 65.0) l0) (* (- (/ 97.0 18.0)) l6) (* (/ 79.0 98.0) l3) (* (- (/ 37.0 10.0)) l3) (* (/ 81.0 18.0) l5) (* (/ 55.0 82.0) l7) (* (/ 42.0 84.0) l4) (* (/ 59.0 62.0) l0) (* (/ 63.0 95.0) l7) (* (/ 77.0 63.0) l0) (* (- (/ 3.0 98.0)) l0) (* (/ 72.0 48.0) l7) (* (/ 75.0 77.0) l2) (* (/ 30.0 93.0) l4) (* (/ 23.0 40.0) l5) (* (- (/ 9.0 95.0)) l4) (* (/ 29.0 55.0) l0) (* (- (/ 27.0 95.0)) l7) (* (- (/ 98.0 10.0)) l6) (* (/ 43.0 30.0) l6) (* (/ 13.0 93.0) l4) (* (- (/ 54.0 42.0)) l0) (* (- (/ 38.0 3.0)) l1) (* (- (/ 18.0 71.0)) l2) (* (- (/ 32.0 13.0)) l0) (* 33.0 l6) (* (- (/ 92.0 38.0)) l3) (* (- (/ 10.0 96.0)) l5) (* (/ 33.0 66.0) l6) (* (- (/ 7.0 91.0)) l2) (* (/ 100.0 43.0) l1) (* (- (/ 62.0 7.0)) l3) (* (- (/ 74.0 14.0)) l7) (* (/ 77.0 25.0) l1) (* (/ 27.0 42.0) l2) (* (- (/ 81.0 81.0)) l0) (* (- (/ 97.0 90.0)) l5) (* (/ 96.0 7.0) l7) (* (/ 72.0 41.0) l2) (* (- (/ 22.0 57.0)) l0) (* (/ 81.0 8.0) l5) (* (- (/ 47.0 14.0)) l7) (* (/ 22.0 51.0) l0) (* (- (/ 41.0 10.0)) l3) (* (- (/ 80.0 94.0)) l0) (* (- (/ 89.0 60.0)) l6) (* (- (/ 82.0 40.0)) l5) (* (- (/ 39.0 41.0)) l0) (* (/ 28.0 42.0) l4) (* (/ 79.0 44.0) l4) (* (- (/ 97.0 31.0)) l5) (* (/ 86.0 92.0) l0) (* (/ 3.0 11.0) l1) (* (/ 23.0 43.0) l7) (* (/ 26.0 12.0) l0) (* (- (/ 71.0 97.0)) l4) (* (/ 96.0 36.0) l7) (* (- 59.0) l0) (* (- (/ 90.0 17.0)) l1) (* (/ 3.0 18.0) l4) (* (- (/ 88.0 83.0)) l5) (* (/ 64.0 83.0) l1) (* (- (/ 66.0 66.0)) l1))
             ;
             ; forall epsilon > 0
             (forall ((epsilon Real)) (=> (< 0.0 epsilon)
               ;
               ; exists delta > 0
               (exists ( (delta Real) ) (and (< 0.0 delta)
                 (forall ((x Real)) (=> ;
                                               ; a != x
                                          (and (not (= x a))
                                               ; | x - a | < delta
                                               (< (ite (>= (- x a) 0.0) (- x a) (- (- x a))) delta))
                                          ;
                                          ; | (+ (* (/ 77.0 81.0) (f5 x)) (* (/ 62.0 65.0) (f0 x)) (* (- (/ 97.0 18.0)) (f6 x)) (* (/ 79.0 98.0) (f3 x)) (* (- (/ 37.0 10.0)) (f3 x)) (* (/ 81.0 18.0) (f5 x)) (* (/ 55.0 82.0) (f7 x)) (* (/ 42.0 84.0) (f4 x)) (* (/ 59.0 62.0) (f0 x)) (* (/ 63.0 95.0) (f7 x)) (* (/ 77.0 63.0) (f0 x)) (* (- (/ 3.0 98.0)) (f0 x)) (* (/ 72.0 48.0) (f7 x)) (* (/ 75.0 77.0) (f2 x)) (* (/ 30.0 93.0) (f4 x)) (* (/ 23.0 40.0) (f5 x)) (* (- (/ 9.0 95.0)) (f4 x)) (* (/ 29.0 55.0) (f0 x)) (* (- (/ 27.0 95.0)) (f7 x)) (* (- (/ 98.0 10.0)) (f6 x)) (* (/ 43.0 30.0) (f6 x)) (* (/ 13.0 93.0) (f4 x)) (* (- (/ 54.0 42.0)) (f0 x)) (* (- (/ 38.0 3.0)) (f1 x)) (* (- (/ 18.0 71.0)) (f2 x)) (* (- (/ 32.0 13.0)) (f0 x)) (* 33.0 (f6 x)) (* (- (/ 92.0 38.0)) (f3 x)) (* (- (/ 10.0 96.0)) (f5 x)) (* (/ 33.0 66.0) (f6 x)) (* (- (/ 7.0 91.0)) (f2 x)) (* (/ 100.0 43.0) (f1 x)) (* (- (/ 62.0 7.0)) (f3 x)) (* (- (/ 74.0 14.0)) (f7 x)) (* (/ 77.0 25.0) (f1 x)) (* (/ 27.0 42.0) (f2 x)) (* (- (/ 81.0 81.0)) (f0 x)) (* (- (/ 97.0 90.0)) (f5 x)) (* (/ 96.0 7.0) (f7 x)) (* (/ 72.0 41.0) (f2 x)) (* (- (/ 22.0 57.0)) (f0 x)) (* (/ 81.0 8.0) (f5 x)) (* (- (/ 47.0 14.0)) (f7 x)) (* (/ 22.0 51.0) (f0 x)) (* (- (/ 41.0 10.0)) (f3 x)) (* (- (/ 80.0 94.0)) (f0 x)) (* (- (/ 89.0 60.0)) (f6 x)) (* (- (/ 82.0 40.0)) (f5 x)) (* (- (/ 39.0 41.0)) (f0 x)) (* (/ 28.0 42.0) (f4 x)) (* (/ 79.0 44.0) (f4 x)) (* (- (/ 97.0 31.0)) (f5 x)) (* (/ 86.0 92.0) (f0 x)) (* (/ 3.0 11.0) (f1 x)) (* (/ 23.0 43.0) (f7 x)) (* (/ 26.0 12.0) (f0 x)) (* (- (/ 71.0 97.0)) (f4 x)) (* (/ 96.0 36.0) (f7 x)) (* (- 59.0) (f0 x)) (* (- (/ 90.0 17.0)) (f1 x)) (* (/ 3.0 18.0) (f4 x)) (* (- (/ 88.0 83.0)) (f5 x)) (* (/ 64.0 83.0) (f1 x)) (* (- (/ 66.0 66.0)) (f1 x))) - (+ (* (/ 77.0 81.0) l5) (* (/ 62.0 65.0) l0) (* (- (/ 97.0 18.0)) l6) (* (/ 79.0 98.0) l3) (* (- (/ 37.0 10.0)) l3) (* (/ 81.0 18.0) l5) (* (/ 55.0 82.0) l7) (* (/ 42.0 84.0) l4) (* (/ 59.0 62.0) l0) (* (/ 63.0 95.0) l7) (* (/ 77.0 63.0) l0) (* (- (/ 3.0 98.0)) l0) (* (/ 72.0 48.0) l7) (* (/ 75.0 77.0) l2) (* (/ 30.0 93.0) l4) (* (/ 23.0 40.0) l5) (* (- (/ 9.0 95.0)) l4) (* (/ 29.0 55.0) l0) (* (- (/ 27.0 95.0)) l7) (* (- (/ 98.0 10.0)) l6) (* (/ 43.0 30.0) l6) (* (/ 13.0 93.0) l4) (* (- (/ 54.0 42.0)) l0) (* (- (/ 38.0 3.0)) l1) (* (- (/ 18.0 71.0)) l2) (* (- (/ 32.0 13.0)) l0) (* 33.0 l6) (* (- (/ 92.0 38.0)) l3) (* (- (/ 10.0 96.0)) l5) (* (/ 33.0 66.0) l6) (* (- (/ 7.0 91.0)) l2) (* (/ 100.0 43.0) l1) (* (- (/ 62.0 7.0)) l3) (* (- (/ 74.0 14.0)) l7) (* (/ 77.0 25.0) l1) (* (/ 27.0 42.0) l2) (* (- (/ 81.0 81.0)) l0) (* (- (/ 97.0 90.0)) l5) (* (/ 96.0 7.0) l7) (* (/ 72.0 41.0) l2) (* (- (/ 22.0 57.0)) l0) (* (/ 81.0 8.0) l5) (* (- (/ 47.0 14.0)) l7) (* (/ 22.0 51.0) l0) (* (- (/ 41.0 10.0)) l3) (* (- (/ 80.0 94.0)) l0) (* (- (/ 89.0 60.0)) l6) (* (- (/ 82.0 40.0)) l5) (* (- (/ 39.0 41.0)) l0) (* (/ 28.0 42.0) l4) (* (/ 79.0 44.0) l4) (* (- (/ 97.0 31.0)) l5) (* (/ 86.0 92.0) l0) (* (/ 3.0 11.0) l1) (* (/ 23.0 43.0) l7) (* (/ 26.0 12.0) l0) (* (- (/ 71.0 97.0)) l4) (* (/ 96.0 36.0) l7) (* (- 59.0) l0) (* (- (/ 90.0 17.0)) l1) (* (/ 3.0 18.0) l4) (* (- (/ 88.0 83.0)) l5) (* (/ 64.0 83.0) l1) (* (- (/ 66.0 66.0)) l1)) | < epsilon
                                          (< (ite (>= (- (+ (* (/ 77.0 81.0) (f5 x)) (* (/ 62.0 65.0) (f0 x)) (* (- (/ 97.0 18.0)) (f6 x)) (* (/ 79.0 98.0) (f3 x)) (* (- (/ 37.0 10.0)) (f3 x)) (* (/ 81.0 18.0) (f5 x)) (* (/ 55.0 82.0) (f7 x)) (* (/ 42.0 84.0) (f4 x)) (* (/ 59.0 62.0) (f0 x)) (* (/ 63.0 95.0) (f7 x)) (* (/ 77.0 63.0) (f0 x)) (* (- (/ 3.0 98.0)) (f0 x)) (* (/ 72.0 48.0) (f7 x)) (* (/ 75.0 77.0) (f2 x)) (* (/ 30.0 93.0) (f4 x)) (* (/ 23.0 40.0) (f5 x)) (* (- (/ 9.0 95.0)) (f4 x)) (* (/ 29.0 55.0) (f0 x)) (* (- (/ 27.0 95.0)) (f7 x)) (* (- (/ 98.0 10.0)) (f6 x)) (* (/ 43.0 30.0) (f6 x)) (* (/ 13.0 93.0) (f4 x)) (* (- (/ 54.0 42.0)) (f0 x)) (* (- (/ 38.0 3.0)) (f1 x)) (* (- (/ 18.0 71.0)) (f2 x)) (* (- (/ 32.0 13.0)) (f0 x)) (* 33.0 (f6 x)) (* (- (/ 92.0 38.0)) (f3 x)) (* (- (/ 10.0 96.0)) (f5 x)) (* (/ 33.0 66.0) (f6 x)) (* (- (/ 7.0 91.0)) (f2 x)) (* (/ 100.0 43.0) (f1 x)) (* (- (/ 62.0 7.0)) (f3 x)) (* (- (/ 74.0 14.0)) (f7 x)) (* (/ 77.0 25.0) (f1 x)) (* (/ 27.0 42.0) (f2 x)) (* (- (/ 81.0 81.0)) (f0 x)) (* (- (/ 97.0 90.0)) (f5 x)) (* (/ 96.0 7.0) (f7 x)) (* (/ 72.0 41.0) (f2 x)) (* (- (/ 22.0 57.0)) (f0 x)) (* (/ 81.0 8.0) (f5 x)) (* (- (/ 47.0 14.0)) (f7 x)) (* (/ 22.0 51.0) (f0 x)) (* (- (/ 41.0 10.0)) (f3 x)) (* (- (/ 80.0 94.0)) (f0 x)) (* (- (/ 89.0 60.0)) (f6 x)) (* (- (/ 82.0 40.0)) (f5 x)) (* (- (/ 39.0 41.0)) (f0 x)) (* (/ 28.0 42.0) (f4 x)) (* (/ 79.0 44.0) (f4 x)) (* (- (/ 97.0 31.0)) (f5 x)) (* (/ 86.0 92.0) (f0 x)) (* (/ 3.0 11.0) (f1 x)) (* (/ 23.0 43.0) (f7 x)) (* (/ 26.0 12.0) (f0 x)) (* (- (/ 71.0 97.0)) (f4 x)) (* (/ 96.0 36.0) (f7 x)) (* (- 59.0) (f0 x)) (* (- (/ 90.0 17.0)) (f1 x)) (* (/ 3.0 18.0) (f4 x)) (* (- (/ 88.0 83.0)) (f5 x)) (* (/ 64.0 83.0) (f1 x)) (* (- (/ 66.0 66.0)) (f1 x))) (+ (* (/ 77.0 81.0) l5) (* (/ 62.0 65.0) l0) (* (- (/ 97.0 18.0)) l6) (* (/ 79.0 98.0) l3) (* (- (/ 37.0 10.0)) l3) (* (/ 81.0 18.0) l5) (* (/ 55.0 82.0) l7) (* (/ 42.0 84.0) l4) (* (/ 59.0 62.0) l0) (* (/ 63.0 95.0) l7) (* (/ 77.0 63.0) l0) (* (- (/ 3.0 98.0)) l0) (* (/ 72.0 48.0) l7) (* (/ 75.0 77.0) l2) (* (/ 30.0 93.0) l4) (* (/ 23.0 40.0) l5) (* (- (/ 9.0 95.0)) l4) (* (/ 29.0 55.0) l0) (* (- (/ 27.0 95.0)) l7) (* (- (/ 98.0 10.0)) l6) (* (/ 43.0 30.0) l6) (* (/ 13.0 93.0) l4) (* (- (/ 54.0 42.0)) l0) (* (- (/ 38.0 3.0)) l1) (* (- (/ 18.0 71.0)) l2) (* (- (/ 32.0 13.0)) l0) (* 33.0 l6) (* (- (/ 92.0 38.0)) l3) (* (- (/ 10.0 96.0)) l5) (* (/ 33.0 66.0) l6) (* (- (/ 7.0 91.0)) l2) (* (/ 100.0 43.0) l1) (* (- (/ 62.0 7.0)) l3) (* (- (/ 74.0 14.0)) l7) (* (/ 77.0 25.0) l1) (* (/ 27.0 42.0) l2) (* (- (/ 81.0 81.0)) l0) (* (- (/ 97.0 90.0)) l5) (* (/ 96.0 7.0) l7) (* (/ 72.0 41.0) l2) (* (- (/ 22.0 57.0)) l0) (* (/ 81.0 8.0) l5) (* (- (/ 47.0 14.0)) l7) (* (/ 22.0 51.0) l0) (* (- (/ 41.0 10.0)) l3) (* (- (/ 80.0 94.0)) l0) (* (- (/ 89.0 60.0)) l6) (* (- (/ 82.0 40.0)) l5) (* (- (/ 39.0 41.0)) l0) (* (/ 28.0 42.0) l4) (* (/ 79.0 44.0) l4) (* (- (/ 97.0 31.0)) l5) (* (/ 86.0 92.0) l0) (* (/ 3.0 11.0) l1) (* (/ 23.0 43.0) l7) (* (/ 26.0 12.0) l0) (* (- (/ 71.0 97.0)) l4) (* (/ 96.0 36.0) l7) (* (- 59.0) l0) (* (- (/ 90.0 17.0)) l1) (* (/ 3.0 18.0) l4) (* (- (/ 88.0 83.0)) l5) (* (/ 64.0 83.0) l1) (* (- (/ 66.0 66.0)) l1))) 0.0) (- (+ (* (/ 77.0 81.0) (f5 x)) (* (/ 62.0 65.0) (f0 x)) (* (- (/ 97.0 18.0)) (f6 x)) (* (/ 79.0 98.0) (f3 x)) (* (- (/ 37.0 10.0)) (f3 x)) (* (/ 81.0 18.0) (f5 x)) (* (/ 55.0 82.0) (f7 x)) (* (/ 42.0 84.0) (f4 x)) (* (/ 59.0 62.0) (f0 x)) (* (/ 63.0 95.0) (f7 x)) (* (/ 77.0 63.0) (f0 x)) (* (- (/ 3.0 98.0)) (f0 x)) (* (/ 72.0 48.0) (f7 x)) (* (/ 75.0 77.0) (f2 x)) (* (/ 30.0 93.0) (f4 x)) (* (/ 23.0 40.0) (f5 x)) (* (- (/ 9.0 95.0)) (f4 x)) (* (/ 29.0 55.0) (f0 x)) (* (- (/ 27.0 95.0)) (f7 x)) (* (- (/ 98.0 10.0)) (f6 x)) (* (/ 43.0 30.0) (f6 x)) (* (/ 13.0 93.0) (f4 x)) (* (- (/ 54.0 42.0)) (f0 x)) (* (- (/ 38.0 3.0)) (f1 x)) (* (- (/ 18.0 71.0)) (f2 x)) (* (- (/ 32.0 13.0)) (f0 x)) (* 33.0 (f6 x)) (* (- (/ 92.0 38.0)) (f3 x)) (* (- (/ 10.0 96.0)) (f5 x)) (* (/ 33.0 66.0) (f6 x)) (* (- (/ 7.0 91.0)) (f2 x)) (* (/ 100.0 43.0) (f1 x)) (* (- (/ 62.0 7.0)) (f3 x)) (* (- (/ 74.0 14.0)) (f7 x)) (* (/ 77.0 25.0) (f1 x)) (* (/ 27.0 42.0) (f2 x)) (* (- (/ 81.0 81.0)) (f0 x)) (* (- (/ 97.0 90.0)) (f5 x)) (* (/ 96.0 7.0) (f7 x)) (* (/ 72.0 41.0) (f2 x)) (* (- (/ 22.0 57.0)) (f0 x)) (* (/ 81.0 8.0) (f5 x)) (* (- (/ 47.0 14.0)) (f7 x)) (* (/ 22.0 51.0) (f0 x)) (* (- (/ 41.0 10.0)) (f3 x)) (* (- (/ 80.0 94.0)) (f0 x)) (* (- (/ 89.0 60.0)) (f6 x)) (* (- (/ 82.0 40.0)) (f5 x)) (* (- (/ 39.0 41.0)) (f0 x)) (* (/ 28.0 42.0) (f4 x)) (* (/ 79.0 44.0) (f4 x)) (* (- (/ 97.0 31.0)) (f5 x)) (* (/ 86.0 92.0) (f0 x)) (* (/ 3.0 11.0) (f1 x)) (* (/ 23.0 43.0) (f7 x)) (* (/ 26.0 12.0) (f0 x)) (* (- (/ 71.0 97.0)) (f4 x)) (* (/ 96.0 36.0) (f7 x)) (* (- 59.0) (f0 x)) (* (- (/ 90.0 17.0)) (f1 x)) (* (/ 3.0 18.0) (f4 x)) (* (- (/ 88.0 83.0)) (f5 x)) (* (/ 64.0 83.0) (f1 x)) (* (- (/ 66.0 66.0)) (f1 x))) (+ (* (/ 77.0 81.0) l5) (* (/ 62.0 65.0) l0) (* (- (/ 97.0 18.0)) l6) (* (/ 79.0 98.0) l3) (* (- (/ 37.0 10.0)) l3) (* (/ 81.0 18.0) l5) (* (/ 55.0 82.0) l7) (* (/ 42.0 84.0) l4) (* (/ 59.0 62.0) l0) (* (/ 63.0 95.0) l7) (* (/ 77.0 63.0) l0) (* (- (/ 3.0 98.0)) l0) (* (/ 72.0 48.0) l7) (* (/ 75.0 77.0) l2) (* (/ 30.0 93.0) l4) (* (/ 23.0 40.0) l5) (* (- (/ 9.0 95.0)) l4) (* (/ 29.0 55.0) l0) (* (- (/ 27.0 95.0)) l7) (* (- (/ 98.0 10.0)) l6) (* (/ 43.0 30.0) l6) (* (/ 13.0 93.0) l4) (* (- (/ 54.0 42.0)) l0) (* (- (/ 38.0 3.0)) l1) (* (- (/ 18.0 71.0)) l2) (* (- (/ 32.0 13.0)) l0) (* 33.0 l6) (* (- (/ 92.0 38.0)) l3) (* (- (/ 10.0 96.0)) l5) (* (/ 33.0 66.0) l6) (* (- (/ 7.0 91.0)) l2) (* (/ 100.0 43.0) l1) (* (- (/ 62.0 7.0)) l3) (* (- (/ 74.0 14.0)) l7) (* (/ 77.0 25.0) l1) (* (/ 27.0 42.0) l2) (* (- (/ 81.0 81.0)) l0) (* (- (/ 97.0 90.0)) l5) (* (/ 96.0 7.0) l7) (* (/ 72.0 41.0) l2) (* (- (/ 22.0 57.0)) l0) (* (/ 81.0 8.0) l5) (* (- (/ 47.0 14.0)) l7) (* (/ 22.0 51.0) l0) (* (- (/ 41.0 10.0)) l3) (* (- (/ 80.0 94.0)) l0) (* (- (/ 89.0 60.0)) l6) (* (- (/ 82.0 40.0)) l5) (* (- (/ 39.0 41.0)) l0) (* (/ 28.0 42.0) l4) (* (/ 79.0 44.0) l4) (* (- (/ 97.0 31.0)) l5) (* (/ 86.0 92.0) l0) (* (/ 3.0 11.0) l1) (* (/ 23.0 43.0) l7) (* (/ 26.0 12.0) l0) (* (- (/ 71.0 97.0)) l4) (* (/ 96.0 36.0) l7) (* (- 59.0) l0) (* (- (/ 90.0 17.0)) l1) (* (/ 3.0 18.0) l4) (* (- (/ 88.0 83.0)) l5) (* (/ 64.0 83.0) l1) (* (- (/ 66.0 66.0)) l1))) (- (- (+ (* (/ 77.0 81.0) (f5 x)) (* (/ 62.0 65.0) (f0 x)) (* (- (/ 97.0 18.0)) (f6 x)) (* (/ 79.0 98.0) (f3 x)) (* (- (/ 37.0 10.0)) (f3 x)) (* (/ 81.0 18.0) (f5 x)) (* (/ 55.0 82.0) (f7 x)) (* (/ 42.0 84.0) (f4 x)) (* (/ 59.0 62.0) (f0 x)) (* (/ 63.0 95.0) (f7 x)) (* (/ 77.0 63.0) (f0 x)) (* (- (/ 3.0 98.0)) (f0 x)) (* (/ 72.0 48.0) (f7 x)) (* (/ 75.0 77.0) (f2 x)) (* (/ 30.0 93.0) (f4 x)) (* (/ 23.0 40.0) (f5 x)) (* (- (/ 9.0 95.0)) (f4 x)) (* (/ 29.0 55.0) (f0 x)) (* (- (/ 27.0 95.0)) (f7 x)) (* (- (/ 98.0 10.0)) (f6 x)) (* (/ 43.0 30.0) (f6 x)) (* (/ 13.0 93.0) (f4 x)) (* (- (/ 54.0 42.0)) (f0 x)) (* (- (/ 38.0 3.0)) (f1 x)) (* (- (/ 18.0 71.0)) (f2 x)) (* (- (/ 32.0 13.0)) (f0 x)) (* 33.0 (f6 x)) (* (- (/ 92.0 38.0)) (f3 x)) (* (- (/ 10.0 96.0)) (f5 x)) (* (/ 33.0 66.0) (f6 x)) (* (- (/ 7.0 91.0)) (f2 x)) (* (/ 100.0 43.0) (f1 x)) (* (- (/ 62.0 7.0)) (f3 x)) (* (- (/ 74.0 14.0)) (f7 x)) (* (/ 77.0 25.0) (f1 x)) (* (/ 27.0 42.0) (f2 x)) (* (- (/ 81.0 81.0)) (f0 x)) (* (- (/ 97.0 90.0)) (f5 x)) (* (/ 96.0 7.0) (f7 x)) (* (/ 72.0 41.0) (f2 x)) (* (- (/ 22.0 57.0)) (f0 x)) (* (/ 81.0 8.0) (f5 x)) (* (- (/ 47.0 14.0)) (f7 x)) (* (/ 22.0 51.0) (f0 x)) (* (- (/ 41.0 10.0)) (f3 x)) (* (- (/ 80.0 94.0)) (f0 x)) (* (- (/ 89.0 60.0)) (f6 x)) (* (- (/ 82.0 40.0)) (f5 x)) (* (- (/ 39.0 41.0)) (f0 x)) (* (/ 28.0 42.0) (f4 x)) (* (/ 79.0 44.0) (f4 x)) (* (- (/ 97.0 31.0)) (f5 x)) (* (/ 86.0 92.0) (f0 x)) (* (/ 3.0 11.0) (f1 x)) (* (/ 23.0 43.0) (f7 x)) (* (/ 26.0 12.0) (f0 x)) (* (- (/ 71.0 97.0)) (f4 x)) (* (/ 96.0 36.0) (f7 x)) (* (- 59.0) (f0 x)) (* (- (/ 90.0 17.0)) (f1 x)) (* (/ 3.0 18.0) (f4 x)) (* (- (/ 88.0 83.0)) (f5 x)) (* (/ 64.0 83.0) (f1 x)) (* (- (/ 66.0 66.0)) (f1 x))) (+ (* (/ 77.0 81.0) l5) (* (/ 62.0 65.0) l0) (* (- (/ 97.0 18.0)) l6) (* (/ 79.0 98.0) l3) (* (- (/ 37.0 10.0)) l3) (* (/ 81.0 18.0) l5) (* (/ 55.0 82.0) l7) (* (/ 42.0 84.0) l4) (* (/ 59.0 62.0) l0) (* (/ 63.0 95.0) l7) (* (/ 77.0 63.0) l0) (* (- (/ 3.0 98.0)) l0) (* (/ 72.0 48.0) l7) (* (/ 75.0 77.0) l2) (* (/ 30.0 93.0) l4) (* (/ 23.0 40.0) l5) (* (- (/ 9.0 95.0)) l4) (* (/ 29.0 55.0) l0) (* (- (/ 27.0 95.0)) l7) (* (- (/ 98.0 10.0)) l6) (* (/ 43.0 30.0) l6) (* (/ 13.0 93.0) l4) (* (- (/ 54.0 42.0)) l0) (* (- (/ 38.0 3.0)) l1) (* (- (/ 18.0 71.0)) l2) (* (- (/ 32.0 13.0)) l0) (* 33.0 l6) (* (- (/ 92.0 38.0)) l3) (* (- (/ 10.0 96.0)) l5) (* (/ 33.0 66.0) l6) (* (- (/ 7.0 91.0)) l2) (* (/ 100.0 43.0) l1) (* (- (/ 62.0 7.0)) l3) (* (- (/ 74.0 14.0)) l7) (* (/ 77.0 25.0) l1) (* (/ 27.0 42.0) l2) (* (- (/ 81.0 81.0)) l0) (* (- (/ 97.0 90.0)) l5) (* (/ 96.0 7.0) l7) (* (/ 72.0 41.0) l2) (* (- (/ 22.0 57.0)) l0) (* (/ 81.0 8.0) l5) (* (- (/ 47.0 14.0)) l7) (* (/ 22.0 51.0) l0) (* (- (/ 41.0 10.0)) l3) (* (- (/ 80.0 94.0)) l0) (* (- (/ 89.0 60.0)) l6) (* (- (/ 82.0 40.0)) l5) (* (- (/ 39.0 41.0)) l0) (* (/ 28.0 42.0) l4) (* (/ 79.0 44.0) l4) (* (- (/ 97.0 31.0)) l5) (* (/ 86.0 92.0) l0) (* (/ 3.0 11.0) l1) (* (/ 23.0 43.0) l7) (* (/ 26.0 12.0) l0) (* (- (/ 71.0 97.0)) l4) (* (/ 96.0 36.0) l7) (* (- 59.0) l0) (* (- (/ 90.0 17.0)) l1) (* (/ 3.0 18.0) l4) (* (- (/ 88.0 83.0)) l5) (* (/ 64.0 83.0) l1) (* (- (/ 66.0 66.0)) l1))))) epsilon)
                 ))
               ))
             ))))

(check-sat)

